(declare-fun v0 () Bool)
(declare-fun i0 () Int)
(assert (distinct v0 true))
(push)
(assert v0)
(push)
(check-sat)
(check-sat)
(pop)
(assert (= 74 i0))
(check-sat)
(pop)
(check-sat)
(check-sat)
(assert (= (= 73 i0) false))
(check-sat)
